db/inputs/11724153162453021700699817230180158094.smt2
(set-logic QF_FP)
(declare-const x0 (_ FloatingPoint 11 53))
(declare-const x1 (_ FloatingPoint 11 53))
(declare-const x2 (_ FloatingPoint 11 53))
(declare-const x3 (_ FloatingPoint 11 53))
(declare-const x4 (_ FloatingPoint 11 53))
(declare-const x5 (_ FloatingPoint 11 53))
(assert (fp.lt (fp.sub RNE x1 x3) (fp.mul RNE x0 x5)))
(assert (fp.geq (fp.neg x1) (fp.div RNE x4 x2)))
(assert (fp.eq (fp.sub RNE x0 x1) (fp.add RNE x1 x3)))
(assert (fp.geq (fp.mul RNE x0 x2) (fp.mul RNE x4 x5)))
(assert (fp.gt (fp.div RNE x3 x2) (fp.mul RNE x2 x1)))
(assert (fp.leq (fp.sub RNE x1 x0) (fp.mul RNE x5 x3)))
(assert (fp.leq (fp.sub RNE x4 x4) (fp.mul RNE x4 x2)))
(assert (fp.gt (fp.mul RNE x2 x2) (fp.mul RNE x2 x0)))
(assert (fp.gt (fp.add RNE x3 x4) (fp.mul RNE x4 x2)))
(assert (fp.lt (fp.neg x0) (fp.sub RNE x5 x4)))
(assert (fp.lt (fp.mul RNE x2 x2) (fp.div RNE x0 x5)))
(assert (fp.gt (fp.div RNE x1 x1) (fp.mul RNE x5 x0)))
(assert (fp.leq (fp.add RNE x3 x4) (fp.neg x1)))
(assert (fp.geq (fp.mul RNE x3 x3) (fp.neg x2)))
(check-sat)
