db/data/11724153162453021700699817230180158094.z3.out
-------------------
2500.105906131
